400, 39487
46, 46
142, 142
154, 154
314, 314
314, 314
164, 164
42, 42
372, 372
84, 84
260, 260
40, 40
262, 262
280, 280
132, 132
70, 70
84, 84
108, 108
180, 180
348, 348
200, 200
114, 114
360, 360
98, 98
144, 144
100, 100
134, 134
38, 38
390, 390
78, 78
238, 238
366, 366
140, 140
302, 302
22, 22
94, 94
278, 278
192, 192
352, 352
332, 332
322, 322
296, 296
276, 276
342, 342
228, 228
66, 66
180, 180
98, 98
380, 380
142, 142
290, 290
124, 124
136, 136
250, 250
306, 306
242, 242
310, 310
112, 112
320, 320
154, 154
2, 2
42, 42
40, 40
252, 252
334, 334
174, 174
260, 260
30, 30
206, 206
186, 186
34, 34
98, 98
98, 98
332, 332
164, 164
54, 54
366, 366
140, 140
192, 192
102, 102
344, 344
26, 26
24, 24
84, 84
56, 56
290, 290
180, 180
338, 338
352, 352
182, 182
90, 90
234, 234
108, 108
400, 400
304, 304
236, 236
306, 306
340, 340
298, 298
18, 18
54, 54
58, 58
92, 92
400, 400
198, 198
368, 368
388, 388
172, 172
58, 58
220, 220
350, 350
376, 376
40, 40
326, 326
328, 328
184, 184
328, 328
10, 10
400, 400
164, 164
32, 32
216, 216
168, 168
236, 236
58, 58
54, 54
158, 158
244, 244
30, 30
20, 20
12, 12
42, 42
368, 368
360, 360
116, 116
124, 124
146, 146
188, 188
200, 200
110, 110
396, 396
84, 84
132, 132
234, 234
208, 208
214, 214
246, 246
108, 108
14, 14
298, 298
364, 364
14, 14
10, 10
108, 108
270, 270
340, 340
142, 142
302, 302
98, 98
328, 328
54, 54
352, 352
240, 240
110, 110
242, 242
198, 198
252, 252
182, 182
364, 364
244, 244
344, 344
254, 254
388, 388
138, 138
114, 114
164, 164
342, 342
110, 110
54, 54
196, 196
302, 302
194, 194
74, 74
288, 288
50, 50
276, 276
176, 176
292, 292
174, 174
350, 350
372, 372
90, 90
76, 76
208, 208
72, 72
272, 272
338, 338
120, 120
266, 266
86, 86
196, 196
330, 330
372, 372
194, 194
266, 266
162, 162
94, 94
310, 310
142, 142
354, 354
126, 126
4, 4
380, 380
90, 90
192, 192
66, 66
396, 396
132, 132
128, 128
96, 96
60, 60
122, 122
326, 326
32, 32
54, 54
132, 132
152, 152
66, 66
16, 16
322, 322
130, 130
334, 334
370, 370
354, 354
290, 290
142, 142
82, 82
62, 62
124, 124
148, 148
74, 74
4, 4
400, 400
14, 14
284, 284
356, 356
98, 98
262, 262
348, 348
336, 336
340, 340
62, 62
236, 236
324, 324
346, 346
158, 158
22, 22
146, 146
324, 324
122, 122
2, 2
280, 280
390, 390
34, 34
246, 246
144, 144
150, 150
194, 194
286, 286
148, 148
354, 354
86, 86
288, 288
236, 236
224, 224
90, 90
274, 274
388, 388
34, 34
224, 224
280, 280
158, 158
400, 400
192, 192
260, 260
82, 82
8, 8
294, 294
338, 338
238, 238
338, 338
158, 158
380, 380
30, 30
266, 266
344, 344
120, 120
330, 330
98, 98
182, 182
34, 34
358, 358
48, 48
316, 316
356, 356
330, 330
324, 324
184, 184
18, 18
382, 382
116, 116
260, 260
18, 18
384, 384
328, 328
186, 186
358, 358
182, 182
64, 64
302, 302
318, 318
348, 348
308, 308
46, 46
386, 386
328, 328
100, 100
224, 224
250, 250
242, 242
12, 12
206, 206
148, 148
26, 26
158, 158
90, 90
88, 88
340, 340
220, 220
112, 112
174, 174
166, 166
14, 14
104, 104
332, 332
156, 156
318, 318
36, 36
72, 72
182, 182
154, 154
362, 362
188, 188
32, 32
174, 174
384, 384
24, 24
236, 236
54, 54
146, 146
224, 224
188, 188
360, 360
60, 60
294, 294
82, 82
364, 364
248, 248
226, 226
14, 14
34, 34
18, 18
238, 238
368, 368
50, 50
316, 316
174, 174
116, 116
200, 200
364, 364
284, 284
4, 4
344, 344
366, 366
354, 354
140, 140
84, 84
170, 170
32, 32
394, 394
134, 134
272, 272
48, 48
318, 318
106, 106
102, 102
300, 300
196, 196
224, 224
118, 118
86, 86
